100 70455

 224 474
830 111
488 699
909 781
877 935
849 229
229 497
390 156
979 473
589 701
188 272
858 887
270 2
607 758
310 722
132 511
551 913
72 286
793 871
845 13
672 608
187 498
486 733
191 238
422 94
120 338
220 781
53 171
734 981
451 606
412 661
643 624
237 567
758 849
738 936
720 467
406 628
608 143
422 201
712 180
247 714
72 364
830 479
185 565
6 471
206 384
544 692
611 926
906 417
387 825
768 308
699 649
76 694
177 367
827 1
799 44
349 739
255 843
837 98
702 720
308 265
345 800
127 783
937 140
287 481
766 237
725 974
762 953
596 904
487 72
383 667
406 190
388 268
525 321
557 107
639 232
938 42
626 702
945 883
276 139
500 615
717 683
337 863
950 273
932 481
481 416
897 506
911 733
973 725
273 853
920 424
58 407
328 568
731 390
109 342
279 946
686 614
328 933
776 493
315 192
